\ENCODING=ISO-8859-1
\Problem name: MOMKP_p3_n100_m3_ins1

Maximize
 obj:
Subject To
 c1:	594 x1 + 767 x2 + 792 x3 + 431 x4 + 409 x5 + 3 x6 + 389 x7 + 931 x8 + 133 x9 + 480 x10 + 408 x11 + 908 x12 + 974 x13 + 505 x14 + 319 x15 + 579 x16 + 363 x17 + 245 x18 + 986 x19 + 936 x20 + 225 x21 + 495 x22 + 6 x23 + 707 x24 + 4 x25 + 235 x26 + 140 x27 + 211 x28 + 917 x29 + 333 x30 + 585 x31 + 957 x32 + 757 x33 + 100 x34 + 286 x35 + 575 x36 + 234 x37 + 264 x38 + 394 x39 + 917 x40 + 263 x41 + 680 x42 + 239 x43 + 547 x44 + 881 x45 + 519 x46 + 770 x47 + 52 x48 + 103 x49 + 15 x50 + 359 x51 + 723 x52 + 745 x53 + 958 x54 + 397 x55 + 721 x56 + 572 x57 + 793 x58 + 182 x59 + 958 x60 + 876 x61 + 366 x62 + 682 x63 + 219 x64 + 20 x65 + 710 x66 + 916 x67 + 727 x68 + 947 x69 + 443 x70 + 445 x71 + 688 x72 + 975 x73 + 254 x74 + 799 x75 + 36 x76 + 886 x77 + 597 x78 + 181 x79 + 961 x80 + 674 x81 + 579 x82 + 257 x83 + 370 x84 + 229 x85 + 128 x86 + 869 x87 + 587 x88 + 918 x89 + 82 x90 + 679 x91 + 559 x92 + 946 x93 + 908 x94 + 503 x95 + 567 x96 + 487 x97 + 710 x98 + 378 x99 + 62 x100 <= 26095.500000000000000
 c2:	52 x1 + 293 x2 + 780 x3 + 179 x4 + 957 x5 + 956 x6 + 418 x7 + 583 x8 + 558 x9 + 531 x10 + 902 x11 + 136 x12 + 846 x13 + 592 x14 + 62 x15 + 77 x16 + 734 x17 + 491 x18 + 614 x19 + 690 x20 + 9 x21 + 855 x22 + 565 x23 + 702 x24 + 630 x25 + 869 x26 + 198 x27 + 203 x28 + 52 x29 + 370 x30 + 281 x31 + 574 x32 + 159 x33 + 341 x34 + 777 x35 + 296 x36 + 224 x37 + 538 x38 + 870 x39 + 748 x40 + 569 x41 + 122 x42 + 422 x43 + 842 x44 + 872 x45 + 942 x46 + 911 x47 + 699 x48 + 491 x49 + 385 x50 + 657 x51 + 222 x52 + 838 x53 + 790 x54 + 994 x55 + 354 x56 + 841 x57 + 11 x58 + 57 x59 + 525 x60 + 638 x61 + 356 x62 + 751 x63 + 909 x64 + 585 x65 + 427 x66 + 107 x67 + 141 x68 + 513 x69 + 374 x70 + 685 x71 + 746 x72 + 302 x73 + 249 x74 + 525 x75 + 150 x76 + 571 x77 + 374 x78 + 389 x79 + 141 x80 + 837 x81 + 386 x82 + 84 x83 + 271 x84 + 188 x85 + 498 x86 + 565 x87 + 909 x88 + 363 x89 + 333 x90 + 127 x91 + 974 x92 + 419 x93 + 564 x94 + 830 x95 + 68 x96 + 989 x97 + 167 x98 + 274 x99 + 395 x100 <= 24715.000000000000000
 c3:	887 x1 + 306 x2 + 302 x3 + 146 x4 + 245 x5 + 873 x6 + 827 x7 + 102 x8 + 12 x9 + 631 x10 + 294 x11 + 499 x12 + 284 x13 + 685 x14 + 352 x15 + 500 x16 + 100 x17 + 48 x18 + 325 x19 + 877 x20 + 155 x21 + 684 x22 + 128 x23 + 190 x24 + 364 x25 + 48 x26 + 308 x27 + 171 x28 + 968 x29 + 26 x30 + 381 x31 + 634 x32 + 899 x33 + 333 x34 + 376 x35 + 101 x36 + 296 x37 + 960 x38 + 81 x39 + 472 x40 + 294 x41 + 849 x42 + 108 x43 + 917 x44 + 983 x45 + 250 x46 + 446 x47 + 6 x48 + 406 x49 + 370 x50 + 76 x51 + 355 x52 + 49 x53 + 223 x54 + 772 x55 + 853 x56 + 464 x57 + 794 x58 + 659 x59 + 458 x60 + 997 x61 + 12 x62 + 134 x63 + 778 x64 + 124 x65 + 152 x66 + 549 x67 + 416 x68 + 989 x69 + 560 x70 + 565 x71 + 774 x72 + 535 x73 + 861 x74 + 62 x75 + 962 x76 + 495 x77 + 361 x78 + 252 x79 + 925 x80 + 961 x81 + 391 x82 + 529 x83 + 327 x84 + 822 x85 + 118 x86 + 211 x87 + 75 x88 + 968 x89 + 946 x90 + 337 x91 + 520 x92 + 186 x93 + 907 x94 + 300 x95 + 642 x96 + 163 x97 + 850 x98 + 676 x99 + 22 x100 <= 22828.000000000000000
Bounds
 0 <= x1 <= 1
 0 <= x2 <= 1
 0 <= x3 <= 1
 0 <= x4 <= 1
 0 <= x5 <= 1
 0 <= x6 <= 1
 0 <= x7 <= 1
 0 <= x8 <= 1
 0 <= x9 <= 1
 0 <= x10 <= 1
 0 <= x11 <= 1
 0 <= x12 <= 1
 0 <= x13 <= 1
 0 <= x14 <= 1
 0 <= x15 <= 1
 0 <= x16 <= 1
 0 <= x17 <= 1
 0 <= x18 <= 1
 0 <= x19 <= 1
 0 <= x20 <= 1
 0 <= x21 <= 1
 0 <= x22 <= 1
 0 <= x23 <= 1
 0 <= x24 <= 1
 0 <= x25 <= 1
 0 <= x26 <= 1
 0 <= x27 <= 1
 0 <= x28 <= 1
 0 <= x29 <= 1
 0 <= x30 <= 1
 0 <= x31 <= 1
 0 <= x32 <= 1
 0 <= x33 <= 1
 0 <= x34 <= 1
 0 <= x35 <= 1
 0 <= x36 <= 1
 0 <= x37 <= 1
 0 <= x38 <= 1
 0 <= x39 <= 1
 0 <= x40 <= 1
 0 <= x41 <= 1
 0 <= x42 <= 1
 0 <= x43 <= 1
 0 <= x44 <= 1
 0 <= x45 <= 1
 0 <= x46 <= 1
 0 <= x47 <= 1
 0 <= x48 <= 1
 0 <= x49 <= 1
 0 <= x50 <= 1
 0 <= x51 <= 1
 0 <= x52 <= 1
 0 <= x53 <= 1
 0 <= x54 <= 1
 0 <= x55 <= 1
 0 <= x56 <= 1
 0 <= x57 <= 1
 0 <= x58 <= 1
 0 <= x59 <= 1
 0 <= x60 <= 1
 0 <= x61 <= 1
 0 <= x62 <= 1
 0 <= x63 <= 1
 0 <= x64 <= 1
 0 <= x65 <= 1
 0 <= x66 <= 1
 0 <= x67 <= 1
 0 <= x68 <= 1
 0 <= x69 <= 1
 0 <= x70 <= 1
 0 <= x71 <= 1
 0 <= x72 <= 1
 0 <= x73 <= 1
 0 <= x74 <= 1
 0 <= x75 <= 1
 0 <= x76 <= 1
 0 <= x77 <= 1
 0 <= x78 <= 1
 0 <= x79 <= 1
 0 <= x80 <= 1
 0 <= x81 <= 1
 0 <= x82 <= 1
 0 <= x83 <= 1
 0 <= x84 <= 1
 0 <= x85 <= 1
 0 <= x86 <= 1
 0 <= x87 <= 1
 0 <= x88 <= 1
 0 <= x89 <= 1
 0 <= x90 <= 1
 0 <= x91 <= 1
 0 <= x92 <= 1
 0 <= x93 <= 1
 0 <= x94 <= 1
 0 <= x95 <= 1
 0 <= x96 <= 1
 0 <= x97 <= 1
 0 <= x98 <= 1
 0 <= x99 <= 1
 0 <= x100 <= 1
Binaries
 x1 x2 x3 x4 x5 x6 x7 x8 x9 x10 x11 x12 x13 x14 x15 x16 x17 x18 x19 x20 x21 x22 x23 x24 x25 x26 x27 x28 x29 x30 x31 x32 x33 x34 x35 x36 x37 x38 x39 x40 x41 x42 x43 x44 x45 x46 x47 x48 x49 x50 x51 x52 x53 x54 x55 x56 x57 x58 x59 x60 x61 x62 x63 x64 x65 x66 x67 x68 x69 x70 x71 x72 x73 x74 x75 x76 x77 x78 x79 x80 x81 x82 x83 x84 x85 x86 x87 x88 x89 x90 x91 x92 x93 x94 x95 x96 x97 x98 x99 x100
End